mode: 3, sl: 0, sr: 0, revisit: 1, loop: 1
Jetsuite speed factor: 6.06
Solving mode: 3-indexed base
Solving mode: 3-indexed base
Instance name: /home/orlab/rv-fstsp2/rv-fstsp-jetsuite/Niels_instances/output_with_jetsuite//uniform-58-n10-maxradius-20.txt
---------------------------------------------------------------
Current config:
- Number of threads = -1
- Drone endurance = 9999
- SL = 0
- SR = 0
- Allow loop = 1
- Allow revisit = 1
- Allow multi-visit drone = 0
- Use TSP optimal solution as warmstart: = 0
- Use cutting plane method: = 0
- Use CPLEX conflict refiner: = 0
- Debug info: = 0
- Jetsuit enabled: = 0
---------------------------------------------------------------
Version identifier: 22.1.1.0 | 2022-11-28 | 9160aff4d
Tried aggregator 2 times.
MIP Presolve eliminated 1114 rows and 2171 columns.
MIP Presolve modified 1415 coefficients.
Aggregator did 9 substitutions.
Reduced MIP has 1249 rows, 3780 columns, and 30893 nonzeros.
Reduced MIP has 3760 binaries, 0 generals, 0 SOSs, and 0 indicators.
Presolve time = 0.04 sec. (44.34 ticks)
Found incumbent of value 91300.572168 after 0.06 sec. (67.93 ticks)
Probing fixed 54 vars, tightened 18 bounds.
Probing changed sense of 4 constraints.
Probing time = 0.17 sec. (186.21 ticks)
Cover probing fixed 0 vars, tightened 22 bounds.
Tried aggregator 2 times.
Detecting symmetries...
MIP Presolve eliminated 53 rows and 121 columns.
MIP Presolve modified 2616 coefficients.
Aggregator did 12 substitutions.
Reduced MIP has 1181 rows, 3647 columns, and 30191 nonzeros.
Reduced MIP has 3634 binaries, 0 generals, 0 SOSs, and 0 indicators.
Presolve time = 0.04 sec. (50.37 ticks)
Probing time = 0.01 sec. (7.77 ticks)
Cover probing fixed 0 vars, tightened 3 bounds.
Clique table members: 14637.
MIP emphasis: balance optimality and feasibility.
MIP search method: dynamic search.
Parallel mode: deterministic, using up to 20 threads.
Root relaxation solution time = 0.14 sec. (184.83 ticks)

        Nodes                                         Cuts/
   Node  Left     Objective  IInf  Best Integer    Best Bound    ItCnt     Gap

*     0+    0                        91300.5722       20.1899            99.98%
      0     0       42.3171   129    91300.5722       42.3171       24   99.95%
*     0+    0                          314.0924       42.3171            86.53%
*     0+    0                          199.9901       42.3171            78.84%
      0     0       88.3815   120      199.9901      Cuts: 38     2416   55.81%
      0     0       88.4214   177      199.9901      Cuts: 38     3595   55.79%
      0     0       88.4704   222      199.9901      Cuts: 38     5406   55.76%
      0     0       88.4817   250      199.9901      Cuts: 31     7185   55.76%
      0     0       88.5754   187      199.9901      Cuts: 39    10959   55.60%
Detecting symmetries...
      0     0       88.6733   213      199.9901      Cuts: 39    11938   55.60%
      0     0       88.6879   201      199.9901      Cuts: 37    12146   55.60%
      0     0       88.7210   223      199.9901      Cuts: 19    12523   55.60%
      0     0       88.7494   183      199.9901      Cuts: 17    12623   55.60%
      0     0       88.7536   189      199.9901   MIRcuts: 16    12796   55.60%
      0     0       88.7663   196      199.9901       Cuts: 7    13003   55.60%
      0     0       88.7684   220      199.9901      Cuts: 52    13475   55.60%
Detecting symmetries...
      0     2       88.7684   176      199.9901       88.8050    13475   55.60%
Elapsed time = 3.70 sec. (3246.27 ticks, tree = 0.02 MB, solutions = 3)
     38    19      158.4071    75      199.9901       88.8050    18327   55.60%
    962    78      191.7352    80      199.9901       88.8050    59628   55.60%
   2333   358      186.3658    77      199.9901       88.8050   106739   55.60%
   2974   363       88.7684   225      199.9901       88.8173   123455   55.59%
   3030    11        cutoff            199.9901       88.8173   142290   55.59%
   3102    12        cutoff            199.9901       88.8173   144835   55.59%
   4010    34        cutoff            199.9901       89.3146   174118   55.34%
   4576    42      192.1691    83      199.9901       89.3146   203129   55.34%
   5266    81      199.6461    96      199.9901       89.3173   245035   55.34%
   8314    54        cutoff            199.9901       90.0679   378118   54.96%
Elapsed time = 6.91 sec. (6716.00 ticks, tree = 0.26 MB, solutions = 3)

Performing restart 1

Repeating presolve.
Tried aggregator 2 times.
MIP Presolve eliminated 92 rows and 81 columns.
MIP Presolve modified 12534 coefficients.
Aggregator did 1 substitutions.
Reduced MIP has 1088 rows, 3565 columns, and 23067 nonzeros.
Reduced MIP has 3553 binaries, 0 generals, 0 SOSs, and 0 indicators.
Presolve time = 0.01 sec. (29.03 ticks)
Tried aggregator 1 time.
MIP Presolve eliminated 10 rows and 1 columns.
MIP Presolve modified 86 coefficients.
Reduced MIP has 1078 rows, 3564 columns, and 22839 nonzeros.
Reduced MIP has 3552 binaries, 0 generals, 0 SOSs, and 0 indicators.
Presolve time = 0.01 sec. (18.24 ticks)
Represolve time = 0.10 sec. (214.01 ticks)
   9065     0       90.6874   149      199.9901      Cuts: 34   480089   50.37%
   9065     0       92.4766   144      199.9901      Cuts: 48   480597   50.37%
   9065     0       96.4907   128      199.9901      Cuts: 50   482962   50.37%
   9065     0       96.5004   195      199.9901      Cuts: 60   484083   50.37%
   9065     0       96.5031   163      199.9901      Cuts: 37   484884   50.37%
   9065     0       96.5376   166      199.9901      Cuts: 51   485605   50.37%
   9065     0       96.5451   184      199.9901      Cuts: 15   485981   50.37%
   9065     0       96.5623   157      199.9901      Cuts: 18   486586   50.37%
   9065     0       96.5678   161      199.9901      Cuts: 62   486774   50.37%
   9065     2       96.5678   140      199.9901       99.2591   486774   50.37%
   9089     8      197.4245    65      199.9901       99.2591   495224   50.37%
   9808    47      198.3952    49      199.9901       99.2591   552296   50.37%
  11505    79      184.1633    45      199.9901      109.5301   656713   45.23%
  11936    49        cutoff            199.9901      130.6946   700140   34.65%
  14050   446        cutoff            199.9901      140.2150   824472   29.89%
  14726   657        cutoff            199.9901      162.4350   938235   18.78%
  16625   852      191.9809   141      199.9901      165.4709  1052847   17.26%
  17369  1134        cutoff            199.9901      167.6227  1188176   16.18%
  19195  1197      186.5069    61      199.9901      169.8552  1385039   15.07%
Elapsed time = 20.91 sec. (20437.88 ticks, tree = 1.50 MB, solutions = 3)
  22019   184      181.5644   103      199.9901      179.5750  1503482   10.21%
  22034    11      188.9755    61      199.9901      184.5602  1537724    7.72%

Clique cuts applied:  4
Cover cuts applied:  16
Implied bound cuts applied:  4
Flow cuts applied:  5
Mixed integer rounding cuts applied:  43
Zero-half cuts applied:  14
Lift and project cuts applied:  2
Gomory fractional cuts applied:  7

Root node processing (before b&c):
  Real time             =    3.57 sec. (3154.38 ticks)
Parallel b&c, 20 threads:
  Real time             =   21.00 sec. (20250.16 ticks)
  Sync time (average)   =    8.97 sec.
  Wait time (average)   =    0.01 sec.
                          ------------
Total (root+branch&cut) =   24.58 sec. (23404.54 ticks)
Solve time: 24.589
Objective Value: 199.99

Truck Schedule: 
Stage 1: Truck arrived node 0 at 0
	Truck departed from node 0 to node 7 at 0
Stage 2: Truck arrived node 7 at 44.1104
	Truck departed from node 7 to node 7 at 44.1104
Stage 3: Truck arrived node 7 at 44.1104
	Truck departed from node 7 to node 7 at 70.1104
Stage 4: Truck arrived node 7 at 70.1104
	Truck departed from node 7 to node 7 at 115.717
Stage 5: Truck arrived node 7 at 115.717
	Truck departed from node 7 to node 10 at 155.88
Stage 6: Truck arrived node 10 at 199.99

Truck arc:
Stage 1: 0 -> 7
Stage 2: 7 -> 7
Stage 3: 7 -> 7
Stage 4: 7 -> 7
Stage 5: 7 -> 10

Drone Schedule: 
Stage 1 to 2: Drone departed from node 0 visited customer 5 and arrived to node 7
	 Departed at: 0
	 Visited at: 10.0949
	 Arrived at: 29.1212
Added drone operation: position 0 (node 0) -> customer 5 -> position 1 (node 7)
Stage 2 to 3: Drone departed from node 7 visited customer 8 and arrived to node 7
	 Departed at: 44.1104
	 Visited at: 57.1104
	 Arrived at: 70.1104
Added drone operation: position 1 (node 7) -> customer 8 -> position 2 (node 7)
Stage 3 to 4: Drone departed from node 7 visited customer 1 and arrived to node 7
	 Departed at: 70.1104
	 Visited at: 92.914
	 Arrived at: 115.717
Added drone operation: position 2 (node 7) -> customer 1 -> position 3 (node 7)
Stage 4 to 5: Drone departed from node 7 visited customer 2 and arrived to node 7
	 Departed at: 115.717
	 Visited at: 135.799
	 Arrived at: 155.88
Added drone operation: position 3 (node 7) -> customer 2 -> position 4 (node 7)
Stage 5 to 6: Drone departed from node 7 visited customer 4 and arrived to node 10
	 Departed at: 155.88
	 Visited at: 169.772
	 Arrived at: 194.562
Added drone operation: position 4 (node 7) -> customer 4 -> position 5 (node 10)

Jetsuite Schedule: 
Stage 2: Jetsuite launched from node 7 served customer 3 and recovered at node 7
Stage 3: Jetsuite launched from node 7 served customer 9 and recovered at node 7
Stage 4: Jetsuite launched from node 7 served customer 6 and recovered at node 7
x[0][7][1] = 1
x[7][7][2] = 1
x[7][7][3] = 1
x[7][7][4] = 1
x[7][10][5] = 1

Drone Variables (V[i][h][k]):
Y[0][5][1] = 1
Y[7][1][3] = 1
Y[7][2][4] = 1
Y[7][4][5] = 1
Y[7][8][2] = 1

Jetsuite Variables (U[i][h][k]):
U[7][3][2] = 1
U[7][6][4] = 1
U[7][9][3] = 1

Checking the feasibility of the solution...
Time schedule is not given, recalculating...
The objective matches the recalculated objective
The solution is feasible
